p cnf 104 177
1 10 19 28 37 46 55 64 0
2 11 20 29 38 47 56 65 0
3 12 21 30 39 48 57 66 0
4 13 22 31 40 49 58 67 0
5 14 23 32 41 50 59 68 0
6 15 24 33 42 51 60 69 0
7 16 25 34 43 52 61 70 0
8 17 26 35 44 53 62 71 0
9 18 27 36 45 54 63 72 0
-1 -2 0
-1 -3 0
-2 -3 0
73 -1 0
73 -2 0
73 -3 0
-73 -4 0
-73 -5 0
-4 -5 0
74 -73 0
74 -4 0
74 -5 0
-74 -6 0
-74 -7 0
-6 -7 0
75 -74 0
75 -6 0
75 -7 0
-75 -8 0
-75 -9 0
-8 -9 0
-10 -11 0
-10 -12 0
-11 -12 0
76 -10 0
76 -11 0
76 -12 0
-76 -13 0
-76 -14 0
-13 -14 0
77 -76 0
77 -13 0
77 -14 0
-77 -15 0
-77 -16 0
-15 -16 0
78 -77 0
78 -15 0
78 -16 0
-78 -17 0
-78 -18 0
-17 -18 0
-19 -20 0
-19 -21 0
-20 -21 0
79 -19 0
79 -20 0
79 -21 0
-79 -22 0
-79 -23 0
-22 -23 0
80 -79 0
80 -22 0
80 -23 0
-80 -24 0
-80 -25 0
-24 -25 0
81 -80 0
81 -24 0
81 -25 0
-81 -26 0
-81 -27 0
-26 -27 0
-28 -29 0
-28 -30 0
-29 -30 0
82 -28 0
82 -29 0
82 -30 0
-82 -31 0
-82 -32 0
-31 -32 0
83 -82 0
83 -31 0
83 -32 0
-83 -33 0
-83 -34 0
-33 -34 0
84 -83 0
84 -33 0
84 -34 0
-84 -35 0
-84 -36 0
-35 -36 0
-37 -38 0
-37 -39 0
-38 -39 0
85 -37 0
85 -38 0
85 -39 0
-85 -40 0
-85 -41 0
-40 -41 0
86 -85 0
86 -40 0
86 -41 0
-86 -42 0
-86 -43 0
-42 -43 0
87 -86 0
87 -42 0
87 -43 0
-87 -44 0
-87 -45 0
-44 -45 0
-46 -47 0
-46 -48 0
-47 -48 0
88 -46 0
88 -47 0
88 -48 0
-88 -49 0
-88 -50 0
-49 -50 0
89 -88 0
89 -49 0
89 -50 0
-89 -51 0
-89 -52 0
-51 -52 0
90 -89 0
90 -51 0
90 -52 0
-90 -53 0
-90 -54 0
-53 -54 0
-55 -56 0
-55 -57 0
-56 -57 0
91 -55 0
91 -56 0
91 -57 0
-91 -58 0
-91 -59 0
-58 -59 0
92 -91 0
92 -58 0
92 -59 0
-92 -60 0
-92 -61 0
-60 -61 0
93 -92 0
93 -60 0
93 -61 0
-93 -62 0
-93 -63 0
-62 -63 0
-64 -65 0
-64 -66 0
-65 -66 0
94 -64 0
94 -65 0
94 -66 0
-94 -67 0
-94 -68 0
-67 -68 0
95 -94 0
95 -67 0
95 -68 0
-95 -69 0
-95 -70 0
-69 -70 0
96 -95 0
96 -69 0
96 -70 0
-96 -71 0
-96 -72 0
-71 -72 0
